120
150
41
53
53
36
53
76
43
58
91
55
48
47
50
100
74
32
44
90
53
59
45
40
62
91
58
46
24
80
55
95
81
65
28
40
82
62
88
36
27
45
60
89
72
43
35
63
86
63
77
52
99
47
58
92
63
65
20
92
53
62
92
27
28
23
27
100
28
30
92
69
81
76
81
48
21
85
98
47
81
68
77
76
83
77
83
82
82
98
50
21
38
91
89
29
32
58
92
85
83
86
81
86
36
50
100
98
86
75
75
80
71
78
98
53
97
98
88
92
85
98
